TIP.Original.Linear/prod_prop_26.smt2
(set-logic HORN)
(declare-datatypes ((Nat_571 0)) (((Z_2024 ) (S_460 (projS_182 Nat_571)))))
(declare-fun diseqNat_571 (Nat_571 Nat_571) Bool)
(declare-fun projS_183 (Nat_571 Nat_571) Bool)
(declare-fun isZ_427 (Nat_571) Bool)
(declare-fun isS_427 (Nat_571) Bool)
(assert (forall ((x_55094 Nat_571))
	(projS_183 x_55094 (S_460 x_55094))))
(assert (isZ_427 Z_2024))
(assert (forall ((x_55096 Nat_571))
	(isS_427 (S_460 x_55096))))
(assert (forall ((x_55097 Nat_571))
	(diseqNat_571 Z_2024 (S_460 x_55097))))
(assert (forall ((x_55098 Nat_571))
	(diseqNat_571 (S_460 x_55098) Z_2024)))
(assert (forall ((x_55099 Nat_571) (x_55100 Nat_571))
	(=> (diseqNat_571 x_55099 x_55100)
	    (diseqNat_571 (S_460 x_55099) (S_460 x_55100)))))
(declare-fun half_1 (Nat_571 Nat_571) Bool)
(assert (forall ((x_55082 Nat_571) (z_2025 Nat_571))
	(=> (half_1 x_55082 z_2025)
	    (half_1 (S_460 x_55082) (S_460 (S_460 z_2025))))))
(assert (half_1 Z_2024 (S_460 Z_2024)))
(assert (half_1 Z_2024 Z_2024))
(declare-fun x_55078 (Nat_571 Nat_571 Nat_571) Bool)
(assert (forall ((x_55086 Nat_571) (z_2026 Nat_571) (y_2259 Nat_571))
	(=> (x_55078 x_55086 z_2026 y_2259)
	    (x_55078 (S_460 x_55086) (S_460 z_2026) y_2259))))
(assert (forall ((x_55087 Nat_571))
	(x_55078 x_55087 Z_2024 x_55087)))
(assert (forall ((x_55088 Nat_571) (x_55089 Nat_571) (x_55090 Nat_571) (x_55091 Nat_571) (x_55080 Nat_571) (y_2260 Nat_571))
	(=>	(and true
			(diseqNat_571 x_55089 x_55091)
			(x_55078 x_55088 x_55080 y_2260)
			(half_1 x_55089 x_55088)
			(x_55078 x_55090 y_2260 x_55080)
			(half_1 x_55091 x_55090))
		false)))
(check-sat)
